44 450
176 58
262 10
174 18
310 62
194 26
189 64
143 8
192 12
124 55
185 4
94 45
61 71
60 42
197 54
211 3
153 50
29 48
244 45
282 31
297 29
271 77
289 3
297 2
174 75
126 15
227 10
89 17
261 63
273 74
288 2
190 34
305 8
187 21
145 18
212 51
320 28
295 15
255 40
27 4
197 8
157 78
203 16
272 28
79 58
